smt-logs/cvc5/real/beasties27.smt2.log
sat
(
(define-fun sym811 () String "G")
(define-fun sym209 () String "Y")
(define-fun sym3817 () String "R")
(define-fun sym2319 () String "K")
(define-fun sym2748 () String "K")
(define-fun sym4738 () String "A")
(define-fun sym2955 () String "K")
(define-fun sym551 () String "K")
(define-fun sym1249 () String "H")
(define-fun sym1898 () String "K")
(define-fun sym2104 () String "H")
(define-fun sym3369 () String "K")
(define-fun sym4634 () String "K")
(define-fun sym1036 () String "K")
(define-fun sym2532 () String "H")
(define-fun sym3576 () String "K")
(define-fun sym4213 () String "K")
(define-fun sym1683 () String "H")
(define-fun sym4420 () String "K")
(define-fun sym1470 () String "K")
(define-fun sym161 () String "")
(define-fun sym4020 () String "K")
(define-fun sym3162 () String "K")
)
